certificates/rado_a15_c131_N44.drat
-39 9 0
11 9 -41 0
-40 -41 -44 0
-11 -41 -43 -44 0
-41 -43 -44 0
d -11 -41 -43 -44 0
-9 11 -43 0
11 -42 41 -43 0
-42 -43 41 0
d 11 -42 41 -43 0
-11 41 -43 0
-43 41 0
d -42 -43 41 0
-43 -44 0
d -41 -43 -44 0
11 41 -44 0
-9 -27 -11 0
9 43 0
-11 -44 0
-9 -44 0
d -40 -9 -44 0
-44 0
-9 11 0
d -9 -43 11 0
9 11 0
d 9 -41 11 0
11 0
9 0
-5 0
-13 0
-43 0
-15 0
-7 0
-27 0
33 0
17 0
18 0
41 0
31 0
39 0
1 0
-37 0
-29 0
-21 0
-22 0
-14 0
-35 0
10 0
3 0
40 0
-30 0
-28 0
-6 0
-36 0
-12 0
-20 0
4 0
2 0
32 0
38 0
-8 0
0
